p wcnf 227 664 124.0
124.0 -1 64 0
124.0 -64 65 0
124.0 -2 -64 0
124.0 -2 65 0
124.0 -65 66 0
124.0 -3 -65 0
124.0 -3 66 0
124.0 -66 67 0
124.0 -4 -66 0
124.0 -4 67 0
124.0 -67 68 0
124.0 -5 -67 0
124.0 -5 68 0
124.0 -68 69 0
124.0 -6 -68 0
124.0 -6 69 0
124.0 -69 70 0
124.0 -7 -69 0
124.0 -7 70 0
124.0 -70 71 0
124.0 -8 -70 0
124.0 -8 71 0
124.0 -71 72 0
124.0 -9 -71 0
124.0 -9 72 0
124.0 -72 73 0
124.0 -10 -72 0
124.0 -10 73 0
124.0 -73 74 0
124.0 -11 -73 0
124.0 -11 74 0
124.0 -74 75 0
124.0 -12 -74 0
124.0 -12 75 0
124.0 -75 76 0
124.0 -13 -75 0
124.0 -13 76 0
124.0 -76 77 0
124.0 -14 -76 0
124.0 -14 77 0
124.0 -77 78 0
124.0 -15 -77 0
124.0 -15 78 0
124.0 -78 79 0
124.0 -16 -78 0
124.0 -16 79 0
124.0 -79 80 0
124.0 -17 -79 0
124.0 -17 80 0
124.0 -80 81 0
124.0 -18 -80 0
124.0 -18 81 0
124.0 -81 82 0
124.0 -19 -81 0
124.0 -19 82 0
124.0 -82 83 0
124.0 -20 -82 0
124.0 -20 83 0
124.0 -21 -83 0
124.0 1 2 3 4 5 6 7 8 9 10 11 12 13 14 15 16 17 18 19 20 21 0
124.0 -1 84 0
124.0 -84 85 0
124.0 -23 -84 0
124.0 -23 85 0
124.0 -85 86 0
124.0 -24 -85 0
124.0 -24 86 0
124.0 -86 87 0
124.0 -25 -86 0
124.0 -25 87 0
124.0 -87 88 0
124.0 -26 -87 0
124.0 -26 88 0
124.0 -88 89 0
124.0 -27 -88 0
124.0 -27 89 0
124.0 -89 90 0
124.0 -7 -89 0
124.0 -7 90 0
124.0 -90 91 0
124.0 -8 -90 0
124.0 -8 91 0
124.0 -91 92 0
124.0 -9 -91 0
124.0 -9 92 0
124.0 -92 93 0
124.0 -10 -92 0
124.0 -10 93 0
124.0 -93 94 0
124.0 -11 -93 0
124.0 -11 94 0
124.0 -94 95 0
124.0 -28 -94 0
124.0 -28 95 0
124.0 -95 96 0
124.0 -29 -95 0
124.0 -29 96 0
124.0 -96 97 0
124.0 -30 -96 0
124.0 -30 97 0
124.0 -97 98 0
124.0 -31 -97 0
124.0 -31 98 0
124.0 -98 99 0
124.0 -32 -98 0
124.0 -32 99 0
124.0 -99 100 0
124.0 -33 -99 0
124.0 -33 100 0
124.0 -100 101 0
124.0 -34 -100 0
124.0 -34 101 0
124.0 -101 102 0
124.0 -35 -101 0
124.0 -35 102 0
124.0 -102 103 0
124.0 -36 -102 0
124.0 -36 103 0
124.0 -37 -103 0
124.0 1 23 24 25 26 27 7 8 9 10 11 28 29 30 31 32 33 34 35 36 37 0
124.0 -2 104 0
124.0 -104 105 0
124.0 -23 -104 0
124.0 -23 105 0
124.0 -105 106 0
124.0 -39 -105 0
124.0 -39 106 0
124.0 -106 107 0
124.0 -40 -106 0
124.0 -40 107 0
124.0 -107 108 0
124.0 -41 -107 0
124.0 -41 108 0
124.0 -108 109 0
124.0 -42 -108 0
124.0 -42 109 0
124.0 -109 110 0
124.0 -7 -109 0
124.0 -7 110 0
124.0 -110 111 0
124.0 -12 -110 0
124.0 -12 111 0
124.0 -111 112 0
124.0 -13 -111 0
124.0 -13 112 0
124.0 -112 113 0
124.0 -14 -112 0
124.0 -14 113 0
124.0 -113 114 0
124.0 -15 -113 0
124.0 -15 114 0
124.0 -114 115 0
124.0 -28 -114 0
124.0 -28 115 0
124.0 -115 116 0
124.0 -29 -115 0
124.0 -29 116 0
124.0 -116 117 0
124.0 -30 -116 0
124.0 -30 117 0
124.0 -117 118 0
124.0 -31 -117 0
124.0 -31 118 0
124.0 -118 119 0
124.0 -43 -118 0
124.0 -43 119 0
124.0 -119 120 0
124.0 -44 -119 0
124.0 -44 120 0
124.0 -120 121 0
124.0 -45 -120 0
124.0 -45 121 0
124.0 -121 122 0
124.0 -46 -121 0
124.0 -46 122 0
124.0 -122 123 0
124.0 -47 -122 0
124.0 -47 123 0
124.0 -48 -123 0
124.0 2 23 39 40 41 42 7 12 13 14 15 28 29 30 31 43 44 45 46 47 48 0
124.0 -3 124 0
124.0 -124 125 0
124.0 -24 -124 0
124.0 -24 125 0
124.0 -125 126 0
124.0 -39 -125 0
124.0 -39 126 0
124.0 -126 127 0
124.0 -50 -126 0
124.0 -50 127 0
124.0 -127 128 0
124.0 -51 -127 0
124.0 -51 128 0
124.0 -128 129 0
124.0 -52 -128 0
124.0 -52 129 0
124.0 -129 130 0
124.0 -8 -129 0
124.0 -8 130 0
124.0 -130 131 0
124.0 -12 -130 0
124.0 -12 131 0
124.0 -131 132 0
124.0 -28 -131 0
124.0 -28 132 0
124.0 -132 133 0
124.0 -16 -132 0
124.0 -16 133 0
124.0 -133 134 0
124.0 -17 -133 0
124.0 -17 134 0
124.0 -134 135 0
124.0 -18 -134 0
124.0 -18 135 0
124.0 -135 136 0
124.0 -32 -135 0
124.0 -32 136 0
124.0 -136 137 0
124.0 -33 -136 0
124.0 -33 137 0
124.0 -137 138 0
124.0 -34 -137 0
124.0 -34 138 0
124.0 -138 139 0
124.0 -43 -138 0
124.0 -43 139 0
124.0 -139 140 0
124.0 -44 -139 0
124.0 -44 140 0
124.0 -140 141 0
124.0 -45 -140 0
124.0 -45 141 0
124.0 -141 142 0
124.0 -53 -141 0
124.0 -53 142 0
124.0 -142 143 0
124.0 -54 -142 0
124.0 -54 143 0
124.0 -55 -143 0
124.0 3 24 39 50 51 52 8 12 28 16 17 18 32 33 34 43 44 45 53 54 55 0
124.0 -4 144 0
124.0 -144 145 0
124.0 -25 -144 0
124.0 -25 145 0
124.0 -145 146 0
124.0 -40 -145 0
124.0 -40 146 0
124.0 -146 147 0
124.0 -50 -146 0
124.0 -50 147 0
124.0 -147 148 0
124.0 -57 -147 0
124.0 -57 148 0
124.0 -148 149 0
124.0 -58 -148 0
124.0 -58 149 0
124.0 -149 150 0
124.0 -9 -149 0
124.0 -9 150 0
124.0 -150 151 0
124.0 -13 -150 0
124.0 -13 151 0
124.0 -151 152 0
124.0 -29 -151 0
124.0 -29 152 0
124.0 -152 153 0
124.0 -16 -152 0
124.0 -16 153 0
124.0 -153 154 0
124.0 -32 -153 0
124.0 -32 154 0
124.0 -154 155 0
124.0 -43 -154 0
124.0 -43 155 0
124.0 -155 156 0
124.0 -19 -155 0
124.0 -19 156 0
124.0 -156 157 0
124.0 -20 -156 0
124.0 -20 157 0
124.0 -157 158 0
124.0 -35 -157 0
124.0 -35 158 0
124.0 -158 159 0
124.0 -36 -158 0
124.0 -36 159 0
124.0 -159 160 0
124.0 -46 -159 0
124.0 -46 160 0
124.0 -160 161 0
124.0 -47 -160 0
124.0 -47 161 0
124.0 -161 162 0
124.0 -53 -161 0
124.0 -53 162 0
124.0 -162 163 0
124.0 -54 -162 0
124.0 -54 163 0
124.0 -59 -163 0
124.0 4 25 40 50 57 58 9 13 29 16 32 43 19 20 35 36 46 47 53 54 59 0
124.0 -5 164 0
124.0 -164 165 0
124.0 -26 -164 0
124.0 -26 165 0
124.0 -165 166 0
124.0 -41 -165 0
124.0 -41 166 0
124.0 -166 167 0
124.0 -51 -166 0
124.0 -51 167 0
124.0 -167 168 0
124.0 -57 -167 0
124.0 -57 168 0
124.0 -168 169 0
124.0 -61 -168 0
124.0 -61 169 0
124.0 -169 170 0
124.0 -10 -169 0
124.0 -10 170 0
124.0 -170 171 0
124.0 -14 -170 0
124.0 -14 171 0
124.0 -171 172 0
124.0 -30 -171 0
124.0 -30 172 0
124.0 -172 173 0
124.0 -17 -172 0
124.0 -17 173 0
124.0 -173 174 0
124.0 -33 -173 0
124.0 -33 174 0
124.0 -174 175 0
124.0 -44 -174 0
124.0 -44 175 0
124.0 -175 176 0
124.0 -19 -175 0
124.0 -19 176 0
124.0 -176 177 0
124.0 -35 -176 0
124.0 -35 177 0
124.0 -177 178 0
124.0 -46 -177 0
124.0 -46 178 0
124.0 -178 179 0
124.0 -53 -178 0
124.0 -53 179 0
124.0 -179 180 0
124.0 -21 -179 0
124.0 -21 180 0
124.0 -180 181 0
124.0 -37 -180 0
124.0 -37 181 0
124.0 -181 182 0
124.0 -48 -181 0
124.0 -48 182 0
124.0 -182 183 0
124.0 -55 -182 0
124.0 -55 183 0
124.0 -59 -183 0
124.0 5 26 41 51 57 61 10 14 30 17 33 44 19 35 46 53 21 37 48 55 59 0
124.0 -6 184 0
124.0 -184 185 0
124.0 -27 -184 0
124.0 -27 185 0
124.0 -185 186 0
124.0 -42 -185 0
124.0 -42 186 0
124.0 -186 187 0
124.0 -52 -186 0
124.0 -52 187 0
124.0 -187 188 0
124.0 -58 -187 0
124.0 -58 188 0
124.0 -188 189 0
124.0 -61 -188 0
124.0 -61 189 0
124.0 -189 190 0
124.0 -11 -189 0
124.0 -11 190 0
124.0 -190 191 0
124.0 -15 -190 0
124.0 -15 191 0
124.0 -191 192 0
124.0 -18 -191 0
124.0 -18 192 0
124.0 -192 193 0
124.0 -20 -192 0
124.0 -20 193 0
124.0 -193 194 0
124.0 -21 -193 0
124.0 -21 194 0
124.0 -194 195 0
124.0 -31 -194 0
124.0 -31 195 0
124.0 -195 196 0
124.0 -34 -195 0
124.0 -34 196 0
124.0 -196 197 0
124.0 -36 -196 0
124.0 -36 197 0
124.0 -197 198 0
124.0 -37 -197 0
124.0 -37 198 0
124.0 -198 199 0
124.0 -45 -198 0
124.0 -45 199 0
124.0 -199 200 0
124.0 -47 -199 0
124.0 -47 200 0
124.0 -200 201 0
124.0 -48 -200 0
124.0 -48 201 0
124.0 -201 202 0
124.0 -54 -201 0
124.0 -54 202 0
124.0 -202 203 0
124.0 -55 -202 0
124.0 -55 203 0
124.0 -59 -203 0
124.0 6 27 42 52 58 61 11 15 18 20 21 31 34 36 37 45 47 48 54 55 59 0
124.0 -1 22 0
124.0 -1 38 0
124.0 -2 22 0
124.0 -2 49 0
124.0 -3 22 0
124.0 -3 56 0
124.0 -4 22 0
124.0 -4 60 0
124.0 -5 22 0
124.0 -5 62 0
124.0 -6 22 0
124.0 -6 63 0
124.0 -23 38 0
124.0 -23 49 0
124.0 -24 38 0
124.0 -24 56 0
124.0 -25 38 0
124.0 -25 60 0
124.0 -26 38 0
124.0 -26 62 0
124.0 -27 38 0
124.0 -27 63 0
124.0 -39 49 0
124.0 -39 56 0
124.0 -40 49 0
124.0 -40 60 0
124.0 -41 49 0
124.0 -41 62 0
124.0 -42 49 0
124.0 -42 63 0
124.0 -50 56 0
124.0 -50 60 0
124.0 -51 56 0
124.0 -51 62 0
124.0 -52 56 0
124.0 -52 63 0
124.0 -57 60 0
124.0 -57 62 0
124.0 -58 60 0
124.0 -58 63 0
124.0 -61 62 0
124.0 -61 63 0
124.0 -7 -22 0
124.0 -7 -38 0
124.0 -7 -49 0
124.0 -8 -22 0
124.0 -8 -38 0
124.0 -8 -56 0
124.0 -9 -22 0
124.0 -9 -38 0
124.0 -9 -60 0
124.0 -10 -22 0
124.0 -10 -38 0
124.0 -10 -62 0
124.0 -11 -22 0
124.0 -11 -38 0
124.0 -11 -63 0
124.0 -12 -22 0
124.0 -12 -49 0
124.0 -12 -56 0
124.0 -13 -22 0
124.0 -13 -49 0
124.0 -13 -60 0
124.0 -14 -22 0
124.0 -14 -49 0
124.0 -14 -62 0
124.0 -15 -22 0
124.0 -15 -49 0
124.0 -15 -63 0
124.0 -16 -22 0
124.0 -16 -56 0
124.0 -16 -60 0
124.0 -17 -22 0
124.0 -17 -56 0
124.0 -17 -62 0
124.0 -18 -22 0
124.0 -18 -56 0
124.0 -18 -63 0
124.0 -19 -22 0
124.0 -19 -60 0
124.0 -19 -62 0
124.0 -20 -22 0
124.0 -20 -60 0
124.0 -20 -63 0
124.0 -21 -22 0
124.0 -21 -62 0
124.0 -21 -63 0
124.0 -28 -38 0
124.0 -28 -49 0
124.0 -28 -56 0
124.0 -29 -38 0
124.0 -29 -49 0
124.0 -29 -60 0
124.0 -30 -38 0
124.0 -30 -49 0
124.0 -30 -62 0
124.0 -31 -38 0
124.0 -31 -49 0
124.0 -31 -63 0
124.0 -32 -38 0
124.0 -32 -56 0
124.0 -32 -60 0
124.0 -33 -38 0
124.0 -33 -56 0
124.0 -33 -62 0
124.0 -34 -38 0
124.0 -34 -56 0
124.0 -34 -63 0
124.0 -35 -38 0
124.0 -35 -60 0
124.0 -35 -62 0
124.0 -36 -38 0
124.0 -36 -60 0
124.0 -36 -63 0
124.0 -37 -38 0
124.0 -37 -62 0
124.0 -37 -63 0
124.0 -43 -49 0
124.0 -43 -56 0
124.0 -43 -60 0
124.0 -44 -49 0
124.0 -44 -56 0
124.0 -44 -62 0
124.0 -45 -49 0
124.0 -45 -56 0
124.0 -45 -63 0
124.0 -46 -49 0
124.0 -46 -60 0
124.0 -46 -62 0
124.0 -47 -49 0
124.0 -47 -60 0
124.0 -47 -63 0
124.0 -48 -49 0
124.0 -48 -62 0
124.0 -48 -63 0
124.0 -53 -56 0
124.0 -53 -60 0
124.0 -53 -62 0
124.0 -54 -56 0
124.0 -54 -60 0
124.0 -54 -63 0
124.0 -55 -56 0
124.0 -55 -62 0
124.0 -55 -63 0
124.0 -59 -60 0
124.0 -59 -62 0
124.0 -59 -63 0
124.0 22 204 0
124.0 -204 205 0
124.0 38 -204 206 0
124.0 -206 207 0
124.0 49 -206 208 0
124.0 -208 209 0
124.0 56 -208 0
124.0 38 205 0
124.0 -205 210 0
124.0 49 -205 207 0
124.0 -207 211 0
124.0 56 -207 209 0
124.0 -209 212 0
124.0 60 -209 0
124.0 49 210 0
124.0 -210 213 0
124.0 56 -210 211 0
124.0 -211 214 0
124.0 60 -211 212 0
124.0 -212 215 0
124.0 62 -212 0
124.0 56 213 0
124.0 60 -213 214 0
124.0 62 -214 215 0
124.0 63 -215 0
124.0 -22 216 0
124.0 -216 217 0
124.0 -38 -216 218 0
124.0 -218 219 0
124.0 -49 -218 220 0
124.0 -220 221 0
124.0 -56 -220 222 0
124.0 -222 223 0
124.0 -60 -222 0
124.0 -38 217 0
124.0 -217 224 0
124.0 -49 -217 219 0
124.0 -219 225 0
124.0 -56 -219 221 0
124.0 -221 226 0
124.0 -60 -221 223 0
124.0 -223 227 0
124.0 -62 -223 0
124.0 -49 224 0
124.0 -56 -224 225 0
124.0 -60 -225 226 0
124.0 -62 -226 227 0
124.0 -63 -227 0
2 -3 0
2 -4 0
2 -5 0
2 -6 0
2 -24 0
2 -25 0
2 -26 0
2 -27 0
2 -40 0
2 -41 0
2 -42 0
2 -51 0
2 -52 0
2 -58 0
2 -61 0
3.0 -8 0
2.25 -9 0
2.625 -10 0
3.0 -11 0
2.25 -12 0
2.25 -13 0
2.625 -14 0
3.0 -15 0
3.0 -16 0
3.0 -17 0
3.0 -18 0
3.0 -19 0
3.0 -20 0
3.0 -21 0
2.25 -28 0
2.25 -29 0
3.0 -30 0
3.0 -31 0
2.625 -32 0
3.0 -33 0
3.0 -34 0
2.625 -35 0
3.0 -36 0
3.0 -37 0
1.5 -43 0
3.0 -44 0
3.0 -45 0
3.0 -46 0
2.625 -47 0
3.0 -48 0
2.25 -53 0
2.625 -54 0
3.0 -55 0
2.25 -59 0
